p cnf 20 28
10 15 -17 0
-11 -16 -18 0
-1 -2 -4 0
5 -6 -18 0
-2 -4 17 0
2 9 -13 0
1 -15 -20 0
3 18 19 0
3 -16 20 0
9 -11 14 0
2 -14 -16 0
-6 10 -12 0
-4 -5 -10 0
9 -10 13 0
-2 -10 14 0
-5 -6 11 0
10 19 -20 0
-1 -7 -17 0
9 13 19 0
-5 14 15 0
-2 5 14 0
-3 -9 13 0
-1 14 20 0
1 -8 -18 0
7 -12 14 0
6 -14 -18 0
1 -13 19 0
-7 9 -12 0
